C = 3;
T = 4;
G = 2;
MAXCAP = 10;

% Details of the truck types
cap        = [ 7,     8,     8,     10];
refrig     = [ false, false, true, true];

% Orders placed by the customers.
order = array2d(goods,customers,
        [| 0, 0, 4, 10,
         | 0, 4, 8, 7  |]);

